(set-option :produce-models true)
(set-option :produce-unsat-cores true)
(set-option :produce-interpolants true)
(set-option :interpolant-check-mode true)
(set-option :proof-transformation LU)
(set-logic ALL)
(set-info :source |SMT script generated on 2024-03-31T00:10:30+01:00 by Ultimate (https://ultimate.informatik.uni-freiburg.de/)|)
(set-info :smt-lib-version 2.5)
(set-info :category "industrial")
(set-info :ultimate-id nested_5.c_AllErrorsAtOnce_Iteration12)
(declare-fun |c_old(#valid)| () (Array Int Int))
(declare-fun |c_old(#valid)_primed| () (Array Int Int))
(declare-fun |c_#valid| () (Array Int Int))
(declare-fun |c_#valid_primed| () (Array Int Int))
(declare-fun |c_old(#length)| () (Array Int Int))
(declare-fun |c_old(#length)_primed| () (Array Int Int))
(declare-fun |c_#length| () (Array Int Int))
(declare-fun |c_#length_primed| () (Array Int Int))
(declare-fun |c_old(#memory_int#0)| () (Array Int (Array Int Int)))
(declare-fun |c_old(#memory_int#0)_primed| () (Array Int (Array Int Int)))
(declare-fun |c_#memory_int#0| () (Array Int (Array Int Int)))
(declare-fun |c_#memory_int#0_primed| () (Array Int (Array Int Int)))
(declare-fun |c_old(#StackHeapBarrier)| () Int)
(declare-fun |c_old(#StackHeapBarrier)_primed| () Int)
(declare-fun |c_#StackHeapBarrier| () Int)
(declare-fun |c_#StackHeapBarrier_primed| () Int)
(declare-fun |c_#Ultimate.allocInit_~size| () Int)
(declare-fun |c_#Ultimate.allocInit_~size_primed| () Int)
(declare-fun |c_#Ultimate.allocInit_ptrBase| () Int)
(declare-fun |c_#Ultimate.allocInit_ptrBase_primed| () Int)
(declare-fun |c_read~int#0_#ptr.base| () Int)
(declare-fun |c_read~int#0_#ptr.base_primed| () Int)
(declare-fun |c_read~int#0_#ptr.offset| () Int)
(declare-fun |c_read~int#0_#ptr.offset_primed| () Int)
(declare-fun |c_read~int#0_#sizeOfReadType| () Int)
(declare-fun |c_read~int#0_#sizeOfReadType_primed| () Int)
(declare-fun |c_read~int#0_#value| () Int)
(declare-fun |c_read~int#0_#value_primed| () Int)
(declare-fun |c_ULTIMATE.start_#t~ret9| () Int)
(declare-fun |c_ULTIMATE.start_#t~ret9_primed| () Int)
(declare-fun |c_main_#res| () Int)
(declare-fun |c_main_#res_primed| () Int)
(declare-fun |c_main_#t~pre4| () Int)
(declare-fun |c_main_#t~pre4_primed| () Int)
(declare-fun |c_main_#t~pre5| () Int)
(declare-fun |c_main_#t~pre5_primed| () Int)
(declare-fun |c_main_#t~pre6| () Int)
(declare-fun |c_main_#t~pre6_primed| () Int)
(declare-fun |c_main_#t~pre7| () Int)
(declare-fun |c_main_#t~pre7_primed| () Int)
(declare-fun |c_main_#t~pre8| () Int)
(declare-fun |c_main_#t~pre8_primed| () Int)
(declare-fun c_main_~a~0 () Int)
(declare-fun c_main_~a~0_primed () Int)
(declare-fun c_main_~b~0 () Int)
(declare-fun c_main_~b~0_primed () Int)
(declare-fun c_main_~c~0 () Int)
(declare-fun c_main_~c~0_primed () Int)
(declare-fun c_main_~d~0 () Int)
(declare-fun c_main_~d~0_primed () Int)
(declare-fun c_main_~e~0 () Int)
(declare-fun c_main_~e~0_primed () Int)
(declare-fun |c_write~int#0_#value| () Int)
(declare-fun |c_write~int#0_#value_primed| () Int)
(declare-fun |c_write~int#0_#ptr.base| () Int)
(declare-fun |c_write~int#0_#ptr.base_primed| () Int)
(declare-fun |c_write~int#0_#ptr.offset| () Int)
(declare-fun |c_write~int#0_#ptr.offset_primed| () Int)
(declare-fun |c_write~int#0_#sizeOfWrittenType| () Int)
(declare-fun |c_write~int#0_#sizeOfWrittenType_primed| () Int)
(declare-fun |c___assert_fail_#in~0.base| () Int)
(declare-fun |c___assert_fail_#in~0.base_primed| () Int)
(declare-fun |c___assert_fail_#in~0.offset| () Int)
(declare-fun |c___assert_fail_#in~0.offset_primed| () Int)
(declare-fun |c___assert_fail_#in~1.base| () Int)
(declare-fun |c___assert_fail_#in~1.base_primed| () Int)
(declare-fun |c___assert_fail_#in~1.offset| () Int)
(declare-fun |c___assert_fail_#in~1.offset_primed| () Int)
(declare-fun |c___assert_fail_#in~2| () Int)
(declare-fun |c___assert_fail_#in~2_primed| () Int)
(declare-fun |c___assert_fail_#in~3.base| () Int)
(declare-fun |c___assert_fail_#in~3.base_primed| () Int)
(declare-fun |c___assert_fail_#in~3.offset| () Int)
(declare-fun |c___assert_fail_#in~3.offset_primed| () Int)
(declare-fun |c_write~init~int#0_#value| () Int)
(declare-fun |c_write~init~int#0_#value_primed| () Int)
(declare-fun |c_write~init~int#0_#ptr.base| () Int)
(declare-fun |c_write~init~int#0_#ptr.base_primed| () Int)
(declare-fun |c_write~init~int#0_#ptr.offset| () Int)
(declare-fun |c_write~init~int#0_#ptr.offset_primed| () Int)
(declare-fun |c_write~init~int#0_#sizeOfWrittenType| () Int)
(declare-fun |c_write~init~int#0_#sizeOfWrittenType_primed| () Int)
(declare-fun c_ULTIMATE.dealloc_~addr.base () Int)
(declare-fun c_ULTIMATE.dealloc_~addr.base_primed () Int)
(declare-fun c_ULTIMATE.dealloc_~addr.offset () Int)
(declare-fun c_ULTIMATE.dealloc_~addr.offset_primed () Int)
(declare-fun |c_aux_v_ULTIMATE.start_#t~ret9_3| () Int)
(echo "starting trace check")
(push 1)
(declare-fun |#memory_int#0_-1| () (Array Int (Array Int Int)))
(declare-fun |#StackHeapBarrier_-1| () Int)
(declare-fun |#length_-1| () (Array Int Int))
(declare-fun |#valid_-1| () (Array Int Int))
(declare-fun main_~e~0_4 () Int)
(declare-fun main_~c~0_4 () Int)
(declare-fun main_~d~0_4 () Int)
(declare-fun main_~b~0_4 () Int)
(declare-fun main_~a~0_4 () Int)
(declare-fun main_~b~0_5 () Int)
(declare-fun main_~c~0_6 () Int)
(declare-fun main_~d~0_7 () Int)
(declare-fun main_~e~0_8 () Int)
(declare-fun main_~e~0_9 () Int)
(declare-fun |main_#t~pre4_9| () Int)
(declare-fun main_~e~0_10 () Int)
(declare-fun |main_#t~pre4_10| () Int)
(declare-fun main_~d~0_12 () Int)
(declare-fun |main_#t~pre5_12| () Int)
(declare-fun main_~e~0_13 () Int)
(declare-fun main_~e~0_14 () Int)
(declare-fun |main_#t~pre4_14| () Int)
(declare-fun main_~e~0_15 () Int)
(declare-fun |main_#t~pre4_15| () Int)
(declare-fun main_~d~0_17 () Int)
(declare-fun |main_#t~pre5_17| () Int)
(declare-fun main_~c~0_19 () Int)
(declare-fun |main_#t~pre6_19| () Int)
(declare-fun main_~d~0_20 () Int)
(declare-fun main_~e~0_21 () Int)
(declare-fun main_~e~0_22 () Int)
(declare-fun |main_#t~pre4_22| () Int)
(declare-fun main_~e~0_23 () Int)
(declare-fun |main_#t~pre4_23| () Int)
(declare-fun main_~d~0_25 () Int)
(declare-fun |main_#t~pre5_25| () Int)
(declare-fun main_~e~0_26 () Int)
(declare-fun main_~e~0_27 () Int)
(declare-fun |main_#t~pre4_27| () Int)
(declare-fun main_~e~0_28 () Int)
(declare-fun |main_#t~pre4_28| () Int)
(declare-fun main_~d~0_30 () Int)
(declare-fun |main_#t~pre5_30| () Int)
(declare-fun main_~c~0_32 () Int)
(declare-fun |main_#t~pre6_32| () Int)
(declare-fun |main_#t~pre7_34| () Int)
(declare-fun main_~b~0_34 () Int)
(declare-fun main_~c~0_35 () Int)
(declare-fun main_~d~0_36 () Int)
(declare-fun main_~e~0_37 () Int)
(declare-fun main_~e~0_38 () Int)
(declare-fun |main_#t~pre4_38| () Int)
(declare-fun main_~e~0_39 () Int)
(declare-fun |main_#t~pre4_39| () Int)
(declare-fun main_~d~0_41 () Int)
(declare-fun |main_#t~pre5_41| () Int)
(declare-fun main_~e~0_42 () Int)
(declare-fun main_~e~0_43 () Int)
(declare-fun |main_#t~pre4_43| () Int)
(declare-fun main_~e~0_44 () Int)
(declare-fun |main_#t~pre4_44| () Int)
(declare-fun main_~d~0_46 () Int)
(declare-fun |main_#t~pre5_46| () Int)
(declare-fun main_~c~0_48 () Int)
(declare-fun |main_#t~pre6_48| () Int)
(declare-fun main_~d~0_49 () Int)
(declare-fun main_~e~0_50 () Int)
(declare-fun main_~e~0_51 () Int)
(declare-fun |main_#t~pre4_51| () Int)
(declare-fun main_~e~0_52 () Int)
(declare-fun |main_#t~pre4_52| () Int)
(declare-fun main_~d~0_54 () Int)
(declare-fun |main_#t~pre5_54| () Int)
(declare-fun main_~e~0_55 () Int)
(declare-fun main_~e~0_56 () Int)
(declare-fun |main_#t~pre4_56| () Int)
(declare-fun main_~e~0_57 () Int)
(declare-fun |main_#t~pre4_57| () Int)
(declare-fun main_~d~0_59 () Int)
(declare-fun |main_#t~pre5_59| () Int)
(declare-fun main_~c~0_61 () Int)
(declare-fun |main_#t~pre6_61| () Int)
(declare-fun |main_#t~pre7_63| () Int)
(declare-fun main_~b~0_63 () Int)
(declare-fun |main_#t~pre8_65| () Int)
(declare-fun main_~a~0_65 () Int)
(declare-fun main_~b~0_66 () Int)
(declare-fun main_~c~0_67 () Int)
(declare-fun main_~d~0_68 () Int)
(declare-fun main_~e~0_69 () Int)
(declare-fun main_~e~0_70 () Int)
(declare-fun |main_#t~pre4_70| () Int)
(declare-fun main_~e~0_71 () Int)
(declare-fun |main_#t~pre4_71| () Int)
(declare-fun main_~d~0_73 () Int)
(declare-fun |main_#t~pre5_73| () Int)
(declare-fun main_~e~0_74 () Int)
(declare-fun main_~e~0_75 () Int)
(declare-fun |main_#t~pre4_75| () Int)
(declare-fun main_~e~0_76 () Int)
(declare-fun |main_#t~pre4_76| () Int)
(declare-fun main_~d~0_78 () Int)
(declare-fun |main_#t~pre5_78| () Int)
(declare-fun main_~c~0_80 () Int)
(declare-fun |main_#t~pre6_80| () Int)
(declare-fun main_~d~0_81 () Int)
(declare-fun main_~e~0_82 () Int)
(declare-fun main_~e~0_83 () Int)
(declare-fun |main_#t~pre4_83| () Int)
(declare-fun main_~e~0_84 () Int)
(declare-fun |main_#t~pre4_84| () Int)
(declare-fun main_~d~0_86 () Int)
(declare-fun |main_#t~pre5_86| () Int)
(declare-fun main_~e~0_87 () Int)
(declare-fun main_~e~0_88 () Int)
(declare-fun |main_#t~pre4_88| () Int)
(declare-fun main_~e~0_89 () Int)
(declare-fun |main_#t~pre4_89| () Int)
(declare-fun main_~d~0_91 () Int)
(declare-fun |main_#t~pre5_91| () Int)
(declare-fun main_~c~0_93 () Int)
(declare-fun |main_#t~pre6_93| () Int)
(declare-fun |main_#t~pre7_95| () Int)
(declare-fun main_~b~0_95 () Int)
(declare-fun main_~c~0_96 () Int)
(declare-fun main_~d~0_97 () Int)
(declare-fun main_~e~0_98 () Int)
(declare-fun main_~e~0_99 () Int)
(declare-fun |main_#t~pre4_99| () Int)
(declare-fun main_~e~0_100 () Int)
(declare-fun |main_#t~pre4_100| () Int)
(declare-fun main_~d~0_102 () Int)
(declare-fun |main_#t~pre5_102| () Int)
(declare-fun main_~e~0_103 () Int)
(declare-fun main_~e~0_104 () Int)
(declare-fun |main_#t~pre4_104| () Int)
(declare-fun main_~e~0_105 () Int)
(declare-fun |main_#t~pre4_105| () Int)
(declare-fun main_~d~0_107 () Int)
(declare-fun |main_#t~pre5_107| () Int)
(declare-fun main_~c~0_109 () Int)
(declare-fun |main_#t~pre6_109| () Int)
(declare-fun main_~d~0_110 () Int)
(declare-fun main_~e~0_111 () Int)
(declare-fun main_~e~0_112 () Int)
(declare-fun |main_#t~pre4_112| () Int)
(declare-fun main_~e~0_113 () Int)
(declare-fun |main_#t~pre4_113| () Int)
(declare-fun main_~d~0_115 () Int)
(declare-fun |main_#t~pre5_115| () Int)
(declare-fun main_~e~0_116 () Int)
(declare-fun main_~e~0_117 () Int)
(declare-fun |main_#t~pre4_117| () Int)
(declare-fun main_~e~0_118 () Int)
(declare-fun |main_#t~pre4_118| () Int)
(declare-fun main_~d~0_120 () Int)
(declare-fun |main_#t~pre5_120| () Int)
(declare-fun main_~c~0_122 () Int)
(declare-fun |main_#t~pre6_122| () Int)
(declare-fun |main_#t~pre7_124| () Int)
(declare-fun main_~b~0_124 () Int)
(declare-fun |main_#t~pre8_126| () Int)
(declare-fun main_~a~0_126 () Int)
(declare-fun main_~e~0_128 () Int)
(declare-fun main_~c~0_128 () Int)
(declare-fun main_~d~0_128 () Int)
(declare-fun main_~b~0_128 () Int)
(declare-fun main_~a~0_128 () Int)
(assert (! true :named ssa_precond))
(assert (! (not false) :named ssa_postcond))
(assert (! true :named ssa_0_GlobVarAssigCall))
(assert (! true :named ssa_0_LocVarAssigCall))
(assert (! true :named ssa_0_OldVarAssigCall))
(assert (! (and (< 0 |#StackHeapBarrier_-1|) (= 12 (select |#length_-1| 3)) (= (select |#valid_-1| 3) 1) (= (select |#valid_-1| 2) 1) (= (select |#valid_-1| 1) 1) (= (select |#length_-1| 2) 11) (= (select (select |#memory_int#0_-1| 1) 1) 0) (= (select |#length_-1| 1) 2) (= (select (select |#memory_int#0_-1| 1) 0) 48) (= (select |#valid_-1| 0) 0)) :named ssa_1))
(assert (! true :named ssa_2_return))
(assert (! true :named ssa_3_GlobVarAssigCall))
(assert (! true :named ssa_3_LocVarAssigCall))
(assert (! true :named ssa_3_OldVarAssigCall))
(assert (! (and (= main_~d~0_4 6) (= main_~e~0_4 6) (= main_~c~0_4 6) (= main_~b~0_4 6) (= main_~a~0_4 0)) :named ssa_4))
(assert (! (and (< main_~a~0_4 6) (= main_~b~0_5 0)) :named ssa_5))
(assert (! (and (< main_~b~0_5 6) (= main_~c~0_6 0)) :named ssa_6))
(assert (! (and (= main_~d~0_7 0) (< main_~c~0_6 6)) :named ssa_7))
(assert (! (and (< main_~d~0_7 6) (= main_~e~0_8 0)) :named ssa_8))
(assert (! (and (< main_~e~0_8 6) (= main_~e~0_9 (+ main_~e~0_8 1))) :named ssa_9))
(assert (! (and (< main_~e~0_9 6) (= main_~e~0_10 (+ main_~e~0_9 1))) :named ssa_10))
(assert (! (<= 6 main_~e~0_10) :named ssa_11))
(assert (! (= main_~d~0_12 (+ main_~d~0_7 1)) :named ssa_12))
(assert (! (and (< main_~d~0_12 6) (= main_~e~0_13 0)) :named ssa_13))
(assert (! (and (< main_~e~0_13 6) (= main_~e~0_14 (+ main_~e~0_13 1))) :named ssa_14))
(assert (! (and (< main_~e~0_14 6) (= main_~e~0_15 (+ main_~e~0_14 1))) :named ssa_15))
(assert (! (<= 6 main_~e~0_15) :named ssa_16))
(assert (! (= main_~d~0_17 (+ main_~d~0_12 1)) :named ssa_17))
(assert (! (<= 6 main_~d~0_17) :named ssa_18))
(assert (! (= main_~c~0_19 (+ main_~c~0_6 1)) :named ssa_19))
(assert (! (and (= main_~d~0_20 0) (< main_~c~0_19 6)) :named ssa_20))
(assert (! (and (< main_~d~0_20 6) (= main_~e~0_21 0)) :named ssa_21))
(assert (! (and (< main_~e~0_21 6) (= main_~e~0_22 (+ main_~e~0_21 1))) :named ssa_22))
(assert (! (and (< main_~e~0_22 6) (= main_~e~0_23 (+ main_~e~0_22 1))) :named ssa_23))
(assert (! (<= 6 main_~e~0_23) :named ssa_24))
(assert (! (= main_~d~0_25 (+ main_~d~0_20 1)) :named ssa_25))
(assert (! (and (< main_~d~0_25 6) (= main_~e~0_26 0)) :named ssa_26))
(assert (! (and (< main_~e~0_26 6) (= main_~e~0_27 (+ main_~e~0_26 1))) :named ssa_27))
(assert (! (and (< main_~e~0_27 6) (= main_~e~0_28 (+ main_~e~0_27 1))) :named ssa_28))
(assert (! (<= 6 main_~e~0_28) :named ssa_29))
(assert (! (= main_~d~0_30 (+ main_~d~0_25 1)) :named ssa_30))
(assert (! (<= 6 main_~d~0_30) :named ssa_31))
(assert (! (= main_~c~0_32 (+ main_~c~0_19 1)) :named ssa_32))
(assert (! (<= 6 main_~c~0_32) :named ssa_33))
(assert (! (= (+ main_~b~0_5 1) main_~b~0_34) :named ssa_34))
(assert (! (and (< main_~b~0_34 6) (= main_~c~0_35 0)) :named ssa_35))
(assert (! (and (= main_~d~0_36 0) (< main_~c~0_35 6)) :named ssa_36))
(assert (! (and (< main_~d~0_36 6) (= main_~e~0_37 0)) :named ssa_37))
(assert (! (and (< main_~e~0_37 6) (= main_~e~0_38 (+ main_~e~0_37 1))) :named ssa_38))
(assert (! (and (< main_~e~0_38 6) (= main_~e~0_39 (+ main_~e~0_38 1))) :named ssa_39))
(assert (! (<= 6 main_~e~0_39) :named ssa_40))
(assert (! (= main_~d~0_41 (+ main_~d~0_36 1)) :named ssa_41))
(assert (! (and (< main_~d~0_41 6) (= main_~e~0_42 0)) :named ssa_42))
(assert (! (and (< main_~e~0_42 6) (= main_~e~0_43 (+ main_~e~0_42 1))) :named ssa_43))
(assert (! (and (< main_~e~0_43 6) (= main_~e~0_44 (+ main_~e~0_43 1))) :named ssa_44))
(assert (! (<= 6 main_~e~0_44) :named ssa_45))
(assert (! (= main_~d~0_46 (+ main_~d~0_41 1)) :named ssa_46))
(assert (! (<= 6 main_~d~0_46) :named ssa_47))
(assert (! (= main_~c~0_48 (+ main_~c~0_35 1)) :named ssa_48))
(assert (! (and (= main_~d~0_49 0) (< main_~c~0_48 6)) :named ssa_49))
(assert (! (and (< main_~d~0_49 6) (= main_~e~0_50 0)) :named ssa_50))
(assert (! (and (< main_~e~0_50 6) (= main_~e~0_51 (+ main_~e~0_50 1))) :named ssa_51))
(assert (! (and (< main_~e~0_51 6) (= main_~e~0_52 (+ main_~e~0_51 1))) :named ssa_52))
(assert (! (<= 6 main_~e~0_52) :named ssa_53))
(assert (! (= main_~d~0_54 (+ main_~d~0_49 1)) :named ssa_54))
(assert (! (and (< main_~d~0_54 6) (= main_~e~0_55 0)) :named ssa_55))
(assert (! (and (< main_~e~0_55 6) (= main_~e~0_56 (+ main_~e~0_55 1))) :named ssa_56))
(assert (! (and (< main_~e~0_56 6) (= main_~e~0_57 (+ main_~e~0_56 1))) :named ssa_57))
(assert (! (<= 6 main_~e~0_57) :named ssa_58))
(assert (! (= main_~d~0_59 (+ main_~d~0_54 1)) :named ssa_59))
(assert (! (<= 6 main_~d~0_59) :named ssa_60))
(assert (! (= main_~c~0_61 (+ main_~c~0_48 1)) :named ssa_61))
(assert (! (<= 6 main_~c~0_61) :named ssa_62))
(assert (! (= (+ main_~b~0_34 1) main_~b~0_63) :named ssa_63))
(assert (! (<= 6 main_~b~0_63) :named ssa_64))
(assert (! (= (+ main_~a~0_4 1) main_~a~0_65) :named ssa_65))
(assert (! (and (< main_~a~0_65 6) (= main_~b~0_66 0)) :named ssa_66))
(assert (! (and (< main_~b~0_66 6) (= main_~c~0_67 0)) :named ssa_67))
(assert (! (and (= main_~d~0_68 0) (< main_~c~0_67 6)) :named ssa_68))
(assert (! (and (< main_~d~0_68 6) (= main_~e~0_69 0)) :named ssa_69))
(assert (! (and (< main_~e~0_69 6) (= main_~e~0_70 (+ main_~e~0_69 1))) :named ssa_70))
(assert (! (and (< main_~e~0_70 6) (= main_~e~0_71 (+ main_~e~0_70 1))) :named ssa_71))
(assert (! (<= 6 main_~e~0_71) :named ssa_72))
(assert (! (= main_~d~0_73 (+ main_~d~0_68 1)) :named ssa_73))
(assert (! (and (< main_~d~0_73 6) (= main_~e~0_74 0)) :named ssa_74))
(assert (! (and (< main_~e~0_74 6) (= main_~e~0_75 (+ main_~e~0_74 1))) :named ssa_75))
(assert (! (and (< main_~e~0_75 6) (= main_~e~0_76 (+ main_~e~0_75 1))) :named ssa_76))
(assert (! (<= 6 main_~e~0_76) :named ssa_77))
(assert (! (= main_~d~0_78 (+ main_~d~0_73 1)) :named ssa_78))
(assert (! (<= 6 main_~d~0_78) :named ssa_79))
(assert (! (= main_~c~0_80 (+ main_~c~0_67 1)) :named ssa_80))
(assert (! (and (= main_~d~0_81 0) (< main_~c~0_80 6)) :named ssa_81))
(assert (! (and (< main_~d~0_81 6) (= main_~e~0_82 0)) :named ssa_82))
(assert (! (and (< main_~e~0_82 6) (= main_~e~0_83 (+ main_~e~0_82 1))) :named ssa_83))
(assert (! (and (< main_~e~0_83 6) (= main_~e~0_84 (+ main_~e~0_83 1))) :named ssa_84))
(assert (! (<= 6 main_~e~0_84) :named ssa_85))
(assert (! (= main_~d~0_86 (+ main_~d~0_81 1)) :named ssa_86))
(assert (! (and (< main_~d~0_86 6) (= main_~e~0_87 0)) :named ssa_87))
(assert (! (and (< main_~e~0_87 6) (= main_~e~0_88 (+ main_~e~0_87 1))) :named ssa_88))
(assert (! (and (< main_~e~0_88 6) (= main_~e~0_89 (+ main_~e~0_88 1))) :named ssa_89))
(assert (! (<= 6 main_~e~0_89) :named ssa_90))
(assert (! (= main_~d~0_91 (+ main_~d~0_86 1)) :named ssa_91))
(assert (! (<= 6 main_~d~0_91) :named ssa_92))
(assert (! (= main_~c~0_93 (+ main_~c~0_80 1)) :named ssa_93))
(assert (! (<= 6 main_~c~0_93) :named ssa_94))
(assert (! (= (+ main_~b~0_66 1) main_~b~0_95) :named ssa_95))
(assert (! (and (< main_~b~0_95 6) (= main_~c~0_96 0)) :named ssa_96))
(assert (! (and (= main_~d~0_97 0) (< main_~c~0_96 6)) :named ssa_97))
(assert (! (and (< main_~d~0_97 6) (= main_~e~0_98 0)) :named ssa_98))
(assert (! (and (< main_~e~0_98 6) (= main_~e~0_99 (+ main_~e~0_98 1))) :named ssa_99))
(assert (! (and (< main_~e~0_99 6) (= main_~e~0_100 (+ main_~e~0_99 1))) :named ssa_100))
(assert (! (<= 6 main_~e~0_100) :named ssa_101))
(assert (! (= main_~d~0_102 (+ main_~d~0_97 1)) :named ssa_102))
(assert (! (and (< main_~d~0_102 6) (= main_~e~0_103 0)) :named ssa_103))
(assert (! (and (< main_~e~0_103 6) (= main_~e~0_104 (+ main_~e~0_103 1))) :named ssa_104))
(assert (! (and (< main_~e~0_104 6) (= main_~e~0_105 (+ main_~e~0_104 1))) :named ssa_105))
(assert (! (<= 6 main_~e~0_105) :named ssa_106))
(assert (! (= main_~d~0_107 (+ main_~d~0_102 1)) :named ssa_107))
(assert (! (<= 6 main_~d~0_107) :named ssa_108))
(assert (! (= main_~c~0_109 (+ main_~c~0_96 1)) :named ssa_109))
(assert (! (and (= main_~d~0_110 0) (< main_~c~0_109 6)) :named ssa_110))
(assert (! (and (< main_~d~0_110 6) (= main_~e~0_111 0)) :named ssa_111))
(assert (! (and (< main_~e~0_111 6) (= main_~e~0_112 (+ main_~e~0_111 1))) :named ssa_112))
(assert (! (and (< main_~e~0_112 6) (= main_~e~0_113 (+ main_~e~0_112 1))) :named ssa_113))
(assert (! (<= 6 main_~e~0_113) :named ssa_114))
(assert (! (= main_~d~0_115 (+ main_~d~0_110 1)) :named ssa_115))
(assert (! (and (< main_~d~0_115 6) (= main_~e~0_116 0)) :named ssa_116))
(assert (! (and (< main_~e~0_116 6) (= main_~e~0_117 (+ main_~e~0_116 1))) :named ssa_117))
(assert (! (and (< main_~e~0_117 6) (= main_~e~0_118 (+ main_~e~0_117 1))) :named ssa_118))
(assert (! (<= 6 main_~e~0_118) :named ssa_119))
(assert (! (= main_~d~0_120 (+ main_~d~0_115 1)) :named ssa_120))
(assert (! (<= 6 main_~d~0_120) :named ssa_121))
(assert (! (= main_~c~0_122 (+ main_~c~0_109 1)) :named ssa_122))
(assert (! (<= 6 main_~c~0_122) :named ssa_123))
(assert (! (= (+ main_~b~0_95 1) main_~b~0_124) :named ssa_124))
(assert (! (<= 6 main_~b~0_124) :named ssa_125))
(assert (! (= (+ main_~a~0_65 1) main_~a~0_126) :named ssa_126))
(assert (! (<= 6 main_~a~0_126) :named ssa_127))
(assert (! (or (not (= main_~d~0_120 6)) (not (= main_~b~0_124 6)) (not (= main_~a~0_126 6)) (not (= main_~e~0_118 6)) (not (= main_~c~0_122 6))) :named ssa_128))
(assert (! true :named ssa_129))
(check-sat)
(get-interpolants (and ssa_0_LocVarAssigCall ssa_precond ssa_0_GlobVarAssigCall ssa_0_OldVarAssigCall ssa_2_return ssa_1) (and ssa_3_OldVarAssigCall ssa_3_LocVarAssigCall ssa_3_GlobVarAssigCall) ssa_4 ssa_5 ssa_6 ssa_7 ssa_8 ssa_9 ssa_10 ssa_11 ssa_12 ssa_13 ssa_14 ssa_15 ssa_16 ssa_17 ssa_18 ssa_19 ssa_20 ssa_21 ssa_22 ssa_23 ssa_24 ssa_25 ssa_26 ssa_27 ssa_28 ssa_29 ssa_30 ssa_31 ssa_32 ssa_33 ssa_34 ssa_35 ssa_36 ssa_37 ssa_38 ssa_39 ssa_40 ssa_41 ssa_42 ssa_43 ssa_44 ssa_45 ssa_46 ssa_47 ssa_48 ssa_49 ssa_50 ssa_51 ssa_52 ssa_53 ssa_54 ssa_55 ssa_56 ssa_57 ssa_58 ssa_59 ssa_60 ssa_61 ssa_62 ssa_63 ssa_64 ssa_65 ssa_66 ssa_67 ssa_68 ssa_69 ssa_70 ssa_71 ssa_72 ssa_73 ssa_74 ssa_75 ssa_76 ssa_77 ssa_78 ssa_79 ssa_80 ssa_81 ssa_82 ssa_83 ssa_84 ssa_85 ssa_86 ssa_87 ssa_88 ssa_89 ssa_90 ssa_91 ssa_92 ssa_93 ssa_94 ssa_95 ssa_96 ssa_97 ssa_98 ssa_99 ssa_100 ssa_101 ssa_102 ssa_103 ssa_104 ssa_105 ssa_106 ssa_107 ssa_108 ssa_109 ssa_110 ssa_111 ssa_112 ssa_113 ssa_114 ssa_115 ssa_116 ssa_117 ssa_118 ssa_119 ssa_120 ssa_121 ssa_122 ssa_123 ssa_124 ssa_125 ssa_126 ssa_127 ssa_128 (and ssa_postcond ssa_129))
(echo "finished trace check")
(pop 1)
(echo "starting trace check")
(push 1)
(declare-fun |#memory_int#0_-1| () (Array Int (Array Int Int)))
(declare-fun |#StackHeapBarrier_-1| () Int)
(declare-fun |#length_-1| () (Array Int Int))
(declare-fun |#valid_-1| () (Array Int Int))
(assert (! true :named ssa_precond))
(assert (! (not true) :named ssa_postcond))
(assert (! (and (< 0 |#StackHeapBarrier_-1|) (= 12 (select |#length_-1| 3)) (= (select |#valid_-1| 3) 1) (= (select |#valid_-1| 2) 1) (= (select |#valid_-1| 1) 1) (= (select |#length_-1| 2) 11) (= (select (select |#memory_int#0_-1| 1) 1) 0) (= (select |#length_-1| 1) 2) (= (select (select |#memory_int#0_-1| 1) 0) 48) (= (select |#valid_-1| 0) 0)) :named ssa_0))
(assert (! true :named ssa_1_return))
(assert (! true :named ssa_-2_PendingContext))
(assert (! true :named ssa_-2_LocVarAssignPendingContext))
(assert (! true :named ssa_-2_OldVarAssignPendingContext))
(check-sat)
(get-interpolants (and ssa_0 ssa_precond) (and ssa_-2_PendingContext ssa_-2_LocVarAssignPendingContext ssa_-2_OldVarAssignPendingContext ssa_1_return ssa_postcond))
(echo "finished trace check")
(pop 1)
(exit)
